Results/Experiment 1 Results/New Benchmark/RES_20/output_p1_0.25_p2_0.00_n_20_05.txt
solutions: 0 nodes: 0  modelTime: 113  solveTime: 8  totalTime: 123  modelSize: 7358  readTime: 2 matchingSize: 0
